4470 1558
1925 272
2740 4109
2919 1325
3505 9946
5644 8604
1804 906
9803 3449
8290 4082
9684 5048
454 6252
9542 1840
1827 1154
8429 8993
4223 5170
8606 3918
9805 2177
8052 4308
447 1252
2674 9285
2986 881
663 998
3130 516
6288 7851
8558 3917
9724 5318
448 5994
4259 4223
1890 554
2490 3026
8041 5503
8092 6152
6276 5216
7613 2554
9265 5066
3707 884
702 2859
5617 439
7416 2961
2709 2130
2503 2217
1578 241
3867 229
119 1421
9702 1744
9322 5761
3165 2678
4426 8774
369 3030
6257 1763
